50 1828
885 831 1064 488 949 1074 911 1149 1132 786 963 1030 506 807 691 1008 634 663 980 439 1133 825 545 833 899 598 938 1100 736 1151 1054 495 1041 258 1053 933 1048 451 800 708 705 999 1153 801 1113 244 919 1030 1104 853 
505 437 795 139 596 816 540 986 945 385 618 730 150 409 290 691 241 265 645 112 948 430 175 439 524 213 579 870 333 991 776 143 751 38 774 572 764 118 401 306 303 676 996 402 901 34 551 731 879 464 
